BAYES
27
2 2 2 2 2 2 2 2 3 3 3 3 3 4 4 4 4 4 4 4 4 4 4 4 4 5 5
27
4 10 18 2 13
1 8
3 7 26 0
3 22 21 1
3 7 26 2
4 18 7 26 25
3 0 12 14
3 21 11 9
3 21 11 10
3 5 8 11
3 8 22 3
3 22 21 15
2 13 16
3 21 22 26
4 14 8 13 17
1 18
2 22 4
3 12 13 19
3 23 19 20
3 22 8 21
3 7 26 12
3 21 8 5
2 8 22
4 25 15 1 6
4 6 25 24 23
3 12 13 24
3 21 22 7

96
0.7 0.99 0.999 0.4 0.98 0.995 0.3 0.97 0.99 0.2 0.95 0.985 0.6 0.98 0.995 0.3 0.96 0.99 0.2 0.95 0.98 0.1 0.94 0.98 0.2 0.007 0.0007 0.3 0.01 0.003 0.3 0.02 0.007 0.2 0.03 0.01 0.2 0.01 0.003 0.2 0.02 0.007 0.2 0.03 0.01 0.1 0.03 0.01 0.07 0.002 0.0002 0.2 0.005 0.001 0.2 0.007 0.002 0.3 0.01 0.003 0.1 0.005 0.001 0.2 0.015 0.002 0.2 0.015 0.005 0.3 0.02 0.007 0.03 0.001 0.0001 0.1 0.005 0.001 0.2 0.003 0.001 0.3 0.01 0.002 0.1 0.005 0.001 0.3 0.005 0.001 0.4 0.005 0.005 0.5 0.01 0.003
3
0.2 0.6 0.2
20
1.0 0.1 1.0 0.05 1.0 0.2 1.0 0.6 1.0 0.1 0.0 0.9 0.0 0.95 0.0 0.8 0.0 0.4 0.0 0.9
32
1e-06 1e-06 0.05 0.5 1e-06 1e-06 0.2 0.5 0.1 0.3 0.9 0.8 0.95 0.999999 0.999999 0.999999 0.999999 0.999999 0.95 0.5 0.999999 0.999999 0.8 0.5 0.9 0.7 0.1 0.2 0.05 1e-06 1e-06 1e-06
20
0.9 0.1 0.001 0.0 0.4 0.0 0.99 0.3 0.99 0.15 0.1 0.9 0.999 1.0 0.6 1.0 0.01 0.7 0.01 0.85
200
0.0 0.0 0.0 0.0 0.03 0.16 0.4 0.9 0.1 0.1 0.1 0.1 0.25 0.7 0.99 0.999998 0.0 0.0 0.0 0.0 0.2 0.5 0.7 0.99 0.0 0.0 0.0 0.0 0.01 0.05 0.1 0.2 0.0 0.0 0.0 0.0 1e-06 1e-06 1e-06 1e-06 0.1 0.1 0.1 0.1 0.3 0.5 0.47 0.06 0.8 0.8 0.8 0.8 0.7 0.2999 0.009999 1e-06 0.1 0.1 0.1 0.1 0.3 0.3 0.2 0.009999 0.0 0.0 0.0 0.0 0.09 0.15 0.3 0.2 0.0 0.0 0.0 0.0 1e-06 1e-06 1e-06 1e-06 0.8 0.8 0.8 0.8 0.6 0.3 0.1 0.02 0.1 0.1 0.1 0.1 0.05 0.0001 1e-06 1e-06 0.9 0.9 0.9 0.9 0.5 0.2 0.1 1e-06 0.0 0.0 0.0 0.0 0.2 0.3 0.3 0.3 0.0 0.0 0.0 0.0 1e-06 1e-06 1e-06 1e-06 0.09 0.09 0.09 0.09 0.06 0.03 0.02 0.01 0.0 0.0 0.0 0.0 0.0 0.0 0.0 0.0 0.0 0.0 0.0 0.0 0.0 0.0 0.0 0.0 1.0 1.0 1.0 1.0 0.7 0.5 0.3 0.3 0.0 0.0 0.0 0.0 1e-06 1e-06 1e-06 1e-06 0.01 0.01 0.01 0.01 0.01 0.01 0.01 0.01 0.0 0.0 0.0 0.0 0.0 0.0 0.0 0.0 0.0 0.0 0.0 0.0 0.0 0.0 0.0 0.0 0.0 0.0 0.0 0.0 0.0 0.0 0.0 0.0 1.0 1.0 1.0 1.0 0.999996 0.999996 0.999996 0.999996
24
0.5 0.7 0.0 0.1 0.0 0.0 0.3 0.3 0.1 0.6 0.0 0.0 0.2 0.0 0.6 0.3 0.0 0.7 0.0 0.0 0.3 0.0 1.0 0.3
36
0.001 0.002 0.03 0.3 0.1 0.5 0.9 0.95 0.3 0.6 0.99 0.999998 0.004 0.008 0.15 0.3 0.3 0.3 0.07 0.04 0.3 0.3 0.009999 1e-06 0.995 0.99 0.82 0.4 0.6 0.2 0.03 0.01 0.4 0.1 1e-06 1e-06
36
1.0 1.0 1.0 1.0 0.5 0.3 0.0 0.0 0.3 0.01 0.0 0.0 0.0 0.0 0.0 0.0 0.2 0.4 1.0 0.8 0.2 0.01 0.0 0.0 0.0 0.0 0.0 0.0 0.3 0.3 0.0 0.2 0.5 0.98 1.0 1.0
18
0.5 0.5 0.3 0.3 0.1 0.4 0.45 0.45 0.6 0.6 0.6 0.5 0.05 0.05 0.1 0.1 0.3 0.1
24
0.1 0.0 0.0 0.2 0.0 0.0 0.5 0.0 0.0 0.4 0.0 0.0 0.9 1.0 1.0 0.8 1.0 1.0 0.5 1.0 1.0 0.6 1.0 1.0
64
1e-06 0.15 0.35 0.489999 1e-06 0.01 0.2 0.95 1e-06 0.299999 0.5 0.85 1e-06 0.95 0.999997 0.999997 0.8 0.8 0.6 0.5 0.8 0.25 0.4 1e-06 0.8 1e-06 1e-06 1e-06 0.8 1e-06 1e-06 1e-06 0.049999 0.04 0.04 1e-06 0.05 0.6 0.3 1e-06 0.05 0.6 0.4 0.001 0.05 0.024445 1e-06 1e-06 0.15 0.01 0.01 0.01 0.149999 0.14 0.1 0.049998 0.149999 0.1 0.099999 0.148999 0.149999 0.025554 1e-06 1e-06
16
1.0 0.999 0.9 0.8 0.0 0.000998 0.05 0.1 0.0 1e-06 0.03 0.06 0.0 1e-06 0.02 0.04
80
0.1 0.1 0.1 0.1 0.15 0.15 0.15 0.15 0.2 0.2 0.2 0.2 0.3 0.3 0.3 0.3 0.7 0.7 0.7 0.7 0.2 0.2 0.2 0.2 0.05 0.05 0.05 0.05 0.01 0.01 0.01 0.01 0.2 0.2 0.2 0.2 0.65 0.65 0.65 0.65 0.3 0.3 0.3 0.3 0.09 0.09 0.09 0.09 0.0 0.0 0.0 0.0 0.0 0.0 0.0 0.0 0.45 0.45 0.45 0.45 0.4 0.4 0.4 0.4 0.0 0.0 0.0 0.0 0.0 0.0 0.0 0.0 0.0 0.0 0.0 0.0 0.2 0.2 0.2 0.2
192
1.0 1.0 1.0 1.0 1.0 1.0 1.0 1.0 1.0 1.0 1.0 1.0 0.96 0.98 0.99 0.999 0.96 0.98 0.99 0.999 0.9 0.95 0.97 0.99 0.5 0.8 0.95 0.99 0.5 0.8 0.95 0.99 0.3 0.5 0.9 0.95 0.3 0.5 0.9 0.95 0.3 0.5 0.9 0.95 0.2 0.3 0.6 0.9 0.0 0.0 0.0 0.0 0.0 0.0 0.0 0.0 0.0 0.0 0.0 0.0 0.03 0.019 0.0099 0.00099 0.03 0.019 0.0099 0.00099 0.07 0.04 0.025 0.007 0.2 0.15 0.02 0.007 0.2 0.15 0.02 0.007 0.3 0.2 0.07 0.03 0.3 0.2 0.07 0.03 0.3 0.2 0.07 0.03 0.2 0.3 0.3 0.05 0.0 0.0 0.0 0.0 0.0 0.0 0.0 0.0 0.0 0.0 0.0 0.0 0.009 0.0009 9e-05 9e-06 0.009 0.0009 9e-05 9e-06 0.02 0.007 0.003 0.002 0.2 0.03 0.02 0.002 0.2 0.03 0.02 0.002 0.2 0.2 0.02 0.01 0.2 0.2 0.02 0.01 0.2 0.2 0.02 0.01 0.3 0.2 0.07 0.03 0.0 0.0 0.0 0.0 0.0 0.0 0.0 0.0 0.0 0.0 0.0 0.0 0.001 0.0001 1e-05 1e-06 0.001 0.0001 1e-05 1e-06 0.01 0.003 0.002 0.001 0.1 0.02 0.01 0.001 0.1 0.02 0.01 0.001 0.2 0.1 0.01 0.01 0.2 0.1 0.01 0.01 0.2 0.1 0.01 0.01 0.3 0.2 0.03 0.02
4
0.1 0.4 0.4 0.1
8
0.5 0.8 0.9 0.95 0.5 0.2 0.1 0.05
48
1.0 1.0 1.0 0.99 0.9799657 0.95 0.6 0.5 0.4 0.2 0.1 0.005 0.0 0.0 0.0 0.005 0.00999965 0.03 0.2 0.2 0.3 0.4 0.5 0.55 0.0 0.0 0.0 0.00499 0.009984651 0.01998 0.19998 0.29997 0.29996 0.39996 0.39994 0.4449 0.0 0.0 0.0 1e-05 4.999825e-05 2e-05 2e-05 3e-05 4e-05 4e-05 6e-05 0.0001
64
0.7 0.0 0.0 0.0 0.0 0.0 0.0 0.0 0.0 0.0 0.0 0.0 0.0 0.0 0.0 0.0 0.3 0.95 0.0 0.0 0.95 0.6 0.0 0.0 0.0 0.0 0.0 0.0 0.0 0.0 0.0 0.0 0.0 0.05 0.98 0.0 0.05 0.4 0.95 0.0 0.98 0.8 0.6 0.0 0.0 0.0 0.0 0.0 0.0 0.0 0.02 1.0 0.0 0.0 0.05 1.0 0.02 0.2 0.4 1.0 1.0 1.0 1.0 1.0
48
0.02 0.02 0.02 0.02 0.015 0.015 0.015 0.015 0.01 0.01 0.01 0.01 0.58 0.38 0.48 0.58 0.285 0.185 0.285 0.285 0.09 0.04 0.09 0.09 0.3 0.5 0.4 0.3 0.5 0.6 0.5 0.4 0.4 0.35 0.4 0.4 0.1 0.1 0.1 0.1 0.2 0.2 0.2 0.3 0.5 0.6 0.5 0.5
30
0.95 0.95 0.5 0.9 0.2 0.05 0.1 0.1 0.05 0.05 0.04 0.04 0.5 0.1 0.6 0.55 0.6 0.6 0.55 0.55 0.01 0.01 0.0 0.0 0.2 0.4 0.3 0.3 0.4 0.4
24
0.0 0.0 0.0 0.0 0.0 0.0 0.0 0.0 1e-06 1e-06 0.3 0.9 1.0 1.0 1.0 1.0 1.0 1.0 1.0 1.0 0.999999 0.999999 0.7 0.1
12
0.4 0.4 0.5 0.4 0.4 0.2 0.19 0.19 0.29 0.01 0.01 0.01
80
1e-06 2e-06 3e-06 2e-06 1e-06 0.0005 0.002 0.005 0.005 1e-06 1e-05 0.0001 0.0003 0.0003 1e-06 1e-05 2e-05 5e-05 5e-05 1e-06 1e-06 2e-06 3e-06 2e-06 1e-06 0.001 0.005 0.01 0.01 1e-06 1e-05 0.0002 0.0005 0.0005 1e-06 1e-05 0.0001 0.0002 0.0002 1e-06 0.999999 0.999998 0.999997 0.999998 0.999999 0.9995 0.998 0.995 0.995 0.999999 0.99999 0.9999 0.9997 0.9997 0.999999 0.99999 0.99998 0.99995 0.99995 0.999999 0.999999 0.999998 0.999997 0.999998 0.999999 0.999 0.995 0.99 0.99 0.999999 0.99999 0.9998 0.9995 0.9995 0.999999 0.99999 0.9999 0.9998 0.9998 0.999999
160
0.2 1.0 0.05 1.0 0.04 1.0 0.04 1.0 0.04 1.0 0.15 0.95 0.03 0.95 0.03 0.99 0.03 0.99 0.02 0.98 0.05 0.25 0.01 0.15 0.001 0.01 0.001 0.005 0.001 0.003 0.03 0.05 1e-06 0.01 1e-06 0.005 1e-06 0.001 1e-06 1e-06 0.8 0.0 0.95 0.0 0.01 0.0 0.01 0.0 0.01 0.0 0.85 0.05 0.97 0.05 0.02 0.01 0.02 0.01 0.03 0.01 0.95 0.75 0.99 0.85 0.001 0.01 0.001 0.005 0.001 0.003 0.97 0.95 0.999999 0.99 1e-06 0.005 1e-06 0.001 1e-06 1e-06 0.0 0.0 0.0 0.0 0.95 0.0 0.95 0.0 0.2 0.0 0.0 0.0 0.0 0.0 0.95 0.0 0.95 0.0 0.25 0.01 0.0 0.0 0.0 0.0 0.998 0.98 0.998 0.99 0.018 0.044 0.0 0.0 0.0 0.0 0.999998 0.99 0.999998 0.998 0.009998 0.029998 0.0 0.0 0.0 0.0 0.0 0.0 0.0 0.0 0.75 0.0 0.0 0.0 0.0 0.0 0.0 0.0 0.0 0.0 0.7 0.0 0.0 0.0 0.0 0.0 0.0 0.0 0.0 0.0 0.98 0.95 0.0 0.0 0.0 0.0 0.0 0.0 0.0 0.0 0.99 0.97
48
1.0 1.0 1.0 0.001 0.2 0.7 1e-06 0.001 0.05 1e-06 1e-06 0.05 0.0 0.0 0.0 0.9 0.75 0.29 0.000999 0.099 0.6 9e-06 0.000999 0.2 0.0 0.0 0.0 0.098 0.049999 0.009999 0.7 0.8 0.3 9e-05 0.009 0.2 0.0 0.0 0.0 0.001 1e-06 1e-06 0.299 0.1 0.05 0.9999 0.99 0.55
32
0.15 0.15 0.15 0.15 0.3 0.3 0.3 0.3 0.8 0.8 0.8 0.8 0.9 0.9 0.9 0.9 0.85 0.85 0.85 0.85 0.7 0.7 0.7 0.7 0.2 0.2 0.2 0.2 0.1 0.1 0.1 0.1